\ Model Rmain
\ LP format - for model browsing. Use MPS format to capture full model detail.
Minimize
  e[0] + e[1] + e[2] + e[3] + e[4] + e[5] + e[6] + e[7] + e[8] + e[9]
   + e[10] + e[11] + e[12] + e[13] + e[14] + e[15] + f[0] + f[1] + f[2]
   + f[3] + f[4] + f[5] + f[6] + f[7] + f[8] + f[9] + f[10] + f[11] + f[12]
   + f[13] + f[14] + f[15]
Subject To
 row0: 0.016949152542373 e[0] + 1.214689265536723 e[1]
   - 0.016949152542373 f[0] - 1.214689265536723 f[1] <= 9.141242937853107
 row1: 0.016949152542373 e[2] + 1.214689265536723 e[3]
   - 0.016949152542373 f[2] - 1.214689265536723 f[3] <= 22.7683615819209
 row2: 0.016949152542373 e[4] + 1.214689265536723 e[5]
   - 0.016949152542373 f[4] - 1.214689265536723 f[5] <= 14.78531073446328
 row3: 0.016949152542373 e[6] + 1.214689265536723 e[7]
   - 0.016949152542373 f[6] - 1.214689265536723 f[7] <= 2.497175141242938
 row4: 0.016949152542373 e[8] + 1.214689265536723 e[9]
   - 0.016949152542373 f[8] - 1.214689265536723 f[9] <= -0
 row5: 0.016949152542373 e[10] + 1.214689265536723 e[11]
   - 0.016949152542373 f[10] - 1.214689265536723 f[11]
   <= 27.38983050847457
 row6: 0.016949152542373 e[12] + 1.214689265536723 e[13]
   - 0.016949152542373 f[12] - 1.214689265536723 f[13] <= 29
 row7: 0.016949152542373 e[14] + 1.214689265536723 e[15]
   - 0.016949152542373 f[14] - 1.214689265536723 f[15] <= -0
 equal0: = -0
 equal1: = -0
 equal2: = -0
 equal3: = -0
 equal4: 0.00344728526285552 e[8] + 0.2470554438379776 e[9]
   - 0.00344728526285552 f[8] - 0.2470554438379776 f[9] = -4.44089e-16
 equal5: = -0
 equal6: = -0
 equal7: 0.0112036771042804 e[14] + 0.8029301924734272 e[15]
   - 0.0112036771042804 f[14] - 0.8029301924734272 f[15] = -8.88178e-16
Bounds
End
